n_machines = 3;
n_resources = 5;
n_jobs = 50;
horizon = 2751;
LB = 917;
n_jobs_per_resource = [10, 10, 10, 10, 10];
duration = [12, 56, 38, 94, 97, 50, 43, 83, 97, 32, 78, 73, 26, 14, 55, 35, 84, 48, 97, 3, 72, 69, 59, 18, 78, 23, 69, 86, 33, 55, 91, 96, 54, 41, 81, 20, 57, 90, 91, 84, 10, 54, 56, 49, 28, 22, 7, 21, 64, 58]